70 5815290
16 65 22 43 23 5 7 42 38 49 58 4 32 59 67 61 56 2 35 50 37 69 1 26 62 25 33 48 57 54 44 39 13
64 34 30 20 9 45 18 66 3 28 11 68 46 55 51 52 8 24 15 29 31 60 17 36 12 27 40 0 10 63 19 47 41
6 53 14 21
